c instance by G2
c solution = 100101110000110
c Known solution cost is 71
p cnf 15 15
w 7 2 0 2 3 7 6 7 6 4 7 1 2 8 9
-9 -6 10 0
7 -9 -10 0
8 -11 -4 0
-2 -7 -6 0
-14 8 -6 0
-7 -13 4 0
-15 8 -13 0
-8 15 4 0
-14 3 -12 0
15 2 1 0
-1 5 -10 0
5 3 -2 0
6 14 2 0
1 -10 -6 0
-11 5 -9 0
